(declare-fun var0 () String)
(declare-fun var1 () String)
(declare-fun var2 () String)
(declare-fun var3 () String)
(declare-fun var4 () String)
(declare-fun var5 () String)
(declare-fun var6 () String)
(declare-fun var7 () String)
(declare-fun var8 () String)
(declare-fun var9 () String)
(declare-fun var10 () String)
(declare-fun var11 () String)
(declare-fun var12 () String)
(declare-fun var13 () String)
(declare-fun var14 () String)
(declare-fun var15 () String)
(declare-fun var16 () String)
(declare-fun var17 () String)
(declare-fun var18 () String)
(declare-fun var19 () String)
(declare-fun var20 () String)
(declare-fun var21 () String)
(declare-fun var22 () String)
(declare-fun var23 () String)
(declare-fun var24 () String)
(declare-fun var25 () String)
(declare-fun var26 () String)
(declare-fun var27 () String)
(declare-fun var28 () String)
(declare-fun var29 () String)
(declare-fun var30 () String)
(declare-fun var31 () String)
(declare-fun var32 () String)
(declare-fun var33 () String)
(declare-fun var34 () String)
(declare-fun var35 () String)
(declare-fun var36 () String)
(declare-fun var37 () String)
(declare-fun var38 () String)
(declare-fun var39 () String)
(declare-fun var40 () String)
(declare-fun var41 () String)
(declare-fun var42 () String)
(declare-fun var43 () String)
(declare-fun var44 () String)
(declare-fun var45 () String)
(declare-fun var46 () String)
(declare-fun var47 () String)
(declare-fun var48 () String)
(declare-fun var49 () String)
(declare-fun var50 () String)
(declare-fun var51 () String)
(declare-fun var52 () String)
(declare-fun var53 () String)
(declare-fun var54 () String)
(declare-fun var55 () String)
(declare-fun var56 () String)
(declare-fun var57 () String)
(declare-fun var58 () String)
(declare-fun var59 () String)
(declare-fun var60 () String)
(declare-fun var61 () String)
(declare-fun var62 () String)
(declare-fun var63 () String)
(declare-fun var64 () String)
(declare-fun var65 () String)
(declare-fun var66 () String)
(declare-fun var67 () String)
(declare-fun var68 () String)
(declare-fun var69 () String)
(declare-fun var70 () String)
(declare-fun var71 () String)
(declare-fun var72 () String)
(declare-fun var73 () String)
(declare-fun var74 () String)
(declare-fun var75 () String)
(declare-fun var76 () String)
(declare-fun var77 () String)
(declare-fun var78 () String)
(declare-fun var79 () String)
(declare-fun var80 () String)
(declare-fun var81 () String)
(declare-fun var82 () String)
(declare-fun var83 () String)
(declare-fun var84 () String)
(declare-fun var85 () String)
(declare-fun var86 () String)
(declare-fun var87 () String)
(declare-fun var88 () String)
(declare-fun var89 () String)
(declare-fun var90 () String)
(declare-fun var91 () String)
(declare-fun var92 () String)
(declare-fun var93 () String)
(declare-fun var94 () String)
(declare-fun var95 () String)
(declare-fun var96 () String)
(declare-fun var97 () String)
(declare-fun var98 () String)
(declare-fun var99 () String)
(declare-fun var100 () String)
(declare-fun var101 () String)
(declare-fun var102 () String)
(declare-fun var103 () String)
(declare-fun var104 () String)
(declare-fun var105 () String)
(declare-fun var106 () String)
(declare-fun var107 () String)
(declare-fun var108 () String)
(declare-fun var109 () String)
(declare-fun var110 () String)
(declare-fun var111 () String)
(declare-fun var112 () String)
(declare-fun var113 () String)
(declare-fun var114 () String)
(declare-fun var115 () String)
(declare-fun var116 () String)
(declare-fun var117 () String)
(declare-fun var118 () String)
(declare-fun var119 () String)
(declare-fun var120 () String)
(declare-fun var121 () String)
(declare-fun var122 () String)
(declare-fun var123 () String)
(declare-fun var124 () String)
(declare-fun var125 () String)
(declare-fun var126 () String)
(declare-fun var127 () String)
(declare-fun var128 () String)
(declare-fun var129 () String)
(declare-fun var130 () String)
(declare-fun var131 () String)
(declare-fun var132 () String)
(declare-fun var133 () String)
(declare-fun var134 () String)
(declare-fun var135 () String)
(declare-fun var136 () String)
(declare-fun var137 () String)
(declare-fun var138 () String)
(declare-fun var139 () String)
(declare-fun var140 () String)
(declare-fun var141 () String)
(declare-fun var142 () String)
(declare-fun var143 () String)
(declare-fun var144 () String)
(declare-fun var145 () String)
(declare-fun var146 () String)
(declare-fun var147 () String)
(declare-fun var148 () String)
(declare-fun var149 () String)
(declare-fun var150 () String)
(declare-fun var151 () String)
(declare-fun var152 () String)
(declare-fun var153 () String)
(declare-fun var154 () String)
(declare-fun var155 () String)
(declare-fun var156 () String)
(declare-fun var157 () String)
(declare-fun var158 () String)
(declare-fun var159 () String)
(declare-fun var160 () String)
(declare-fun var161 () String)
(declare-fun var162 () String)
(declare-fun var163 () String)
(declare-fun var164 () String)
(declare-fun var165 () String)
(declare-fun var166 () String)
(declare-fun var167 () String)
(declare-fun var168 () String)
(declare-fun var169 () String)
(declare-fun var170 () String)
(declare-fun var171 () String)
(declare-fun var172 () String)
(declare-fun var173 () String)
(declare-fun var174 () String)
(declare-fun var175 () String)
(declare-fun var176 () String)
(declare-fun var177 () String)
(declare-fun var178 () String)
(declare-fun var179 () String)
(declare-fun var180 () String)
(declare-fun var181 () String)
(declare-fun var182 () String)
(declare-fun var183 () String)
(declare-fun var184 () String)
(declare-fun var185 () String)
(declare-fun var186 () String)
(declare-fun var187 () String)
(declare-fun var188 () String)
(declare-fun var189 () String)
(declare-fun var190 () String)
(declare-fun var191 () String)
(declare-fun var192 () String)
(declare-fun var193 () String)
(declare-fun var194 () String)
(declare-fun var195 () String)
(declare-fun var196 () String)
(declare-fun var197 () String)
(declare-fun var198 () String)
(declare-fun var199 () String)
(declare-fun var200 () String)
(declare-fun var201 () String)
(declare-fun var202 () String)
(declare-fun var203 () String)
(declare-fun var204 () String)
(declare-fun var205 () String)
(declare-fun var206 () String)
(declare-fun var207 () String)
(declare-fun var208 () String)
(declare-fun var209 () String)
(assert (= 42 (Length var0)))
(assert (= 64 (Length var1)))
(assert (= 97 (Length var2)))
(assert (= 58 (Length var3)))
(assert (= 53 (Length var4)))
(assert (= 23 (Length var5)))
(assert (= 44 (Length var6)))
(assert (= 25 (Length var7)))
(assert (= 38 (Length var8)))
(assert (= 74 (Length var9)))
(assert (= 67 (Length var10)))
(assert (= 100 (Length var11)))
(assert (= 93 (Length var12)))
(assert (= 2 (Length var13)))
(assert (= 15 (Length var14)))
(assert (= 40 (Length var15)))
(assert (= 37 (Length var16)))
(assert (= 46 (Length var17)))
(assert (= 18 (Length var18)))
(assert (= 13 (Length var19)))
(assert (= 38 (Length var20)))
(assert (= 69 (Length var21)))
(assert (= 61 (Length var22)))
(assert (= 80 (Length var23)))
(assert (= 69 (Length var24)))
(assert (= 77 (Length var25)))
(assert (= 0 (Length var26)))
(assert (= 17 (Length var27)))
(assert (= 50 (Length var28)))
(assert (= 55 (Length var29)))
(assert (= 20 (Length var30)))
(assert (= 92 (Length var31)))
(assert (= 8 (Length var32)))
(assert (= 27 (Length var33)))
(assert (= 52 (Length var34)))
(assert (= 57 (Length var35)))
(assert (= 15 (Length var36)))
(assert (= 97 (Length var37)))
(assert (= 15 (Length var38)))
(assert (= 4 (Length var39)))
(assert (= 57 (Length var40)))
(assert (= 90 (Length var41)))
(assert (= 48 (Length var42)))
(assert (= 58 (Length var43)))
(assert (= 51 (Length var44)))
(assert (= 5 (Length var45)))
(assert (= 37 (Length var46)))
(assert (= 15 (Length var47)))
(assert (= 95 (Length var48)))
(assert (= 92 (Length var49)))
(assert (= 9 (Length var50)))
(assert (= 78 (Length var51)))
(assert (= 0 (Length var52)))
(assert (= 94 (Length var53)))
(assert (= 11 (Length var54)))
(assert (= 46 (Length var55)))
(assert (= 50 (Length var56)))
(assert (= 66 (Length var57)))
(assert (= 1 (Length var58)))
(assert (= 0 (Length var59)))
(assert (= 73 (Length var60)))
(assert (= 66 (Length var61)))
(assert (= 34 (Length var62)))
(assert (= 95 (Length var63)))
(assert (= 83 (Length var64)))
(assert (= 37 (Length var65)))
(assert (= 15 (Length var66)))
(assert (= 73 (Length var67)))
(assert (= 23 (Length var68)))
(assert (= 92 (Length var69)))
(assert (= 54 (Length var70)))
(assert (= 6 (Length var71)))
(assert (= 19 (Length var72)))
(assert (= 54 (Length var73)))
(assert (= 38 (Length var74)))
(assert (= 66 (Length var75)))
(assert (= 1 (Length var76)))
(assert (= 52 (Length var77)))
(assert (= 36 (Length var78)))
(assert (= 10 (Length var79)))
(assert (= 93 (Length var80)))
(assert (= 68 (Length var81)))
(assert (= 31 (Length var82)))
(assert (= 55 (Length var83)))
(assert (= 34 (Length var84)))
(assert (= 52 (Length var85)))
(assert (= 16 (Length var86)))
(assert (= 91 (Length var87)))
(assert (= 88 (Length var88)))
(assert (= 52 (Length var89)))
(assert (= 76 (Length var90)))
(assert (= 40 (Length var91)))
(assert (= 81 (Length var92)))
(assert (= 11 (Length var93)))
(assert (= 69 (Length var94)))
(assert (= 70 (Length var95)))
(assert (= 31 (Length var96)))
(assert (= 8 (Length var97)))
(assert (= 76 (Length var98)))
(assert (= 32 (Length var99)))
(assert (= 40 (Length var100)))
(assert (= 26 (Length var101)))
(assert (= 13 (Length var102)))
(assert (= 38 (Length var103)))
(assert (= 94 (Length var104)))
(assert (= 67 (Length var105)))
(assert (= 15 (Length var106)))
(assert (= 92 (Length var107)))
(assert (= 29 (Length var108)))
(assert (= 76 (Length var109)))
(assert (= 83 (Length var110)))
(assert (= 56 (Length var111)))
(assert (= 14 (Length var112)))
(assert (= 86 (Length var113)))
(assert (= 41 (Length var114)))
(assert (= 94 (Length var115)))
(assert (= 23 (Length var116)))
(assert (= 16 (Length var117)))
(assert (= 33 (Length var118)))
(assert (= 32 (Length var119)))
(assert (= 32 (Length var120)))
(assert (= 88 (Length var121)))
(assert (= 78 (Length var122)))
(assert (= 26 (Length var123)))
(assert (= 75 (Length var124)))
(assert (= 70 (Length var125)))
(assert (= 56 (Length var126)))
(assert (= 47 (Length var127)))
(assert (= 62 (Length var128)))
(assert (= 15 (Length var129)))
(assert (= 0 (Length var130)))
(assert (= 4 (Length var131)))
(assert (= 46 (Length var132)))
(assert (= 6 (Length var133)))
(assert (= 20 (Length var134)))
(assert (= 67 (Length var135)))
(assert (= 43 (Length var136)))
(assert (= 35 (Length var137)))
(assert (= 17 (Length var138)))
(assert (= 5 (Length var139)))
(assert (= 93 (Length var140)))
(assert (= 8 (Length var141)))
(assert (= 94 (Length var142)))
(assert (= 53 (Length var143)))
(assert (= 44 (Length var144)))
(assert (= 7 (Length var145)))
(assert (= 66 (Length var146)))
(assert (= 0 (Length var147)))
(assert (= 63 (Length var148)))
(assert (= 42 (Length var149)))
(assert (= 0 (Length var150)))
(assert (= 90 (Length var151)))
(assert (= 95 (Length var152)))
(assert (= 70 (Length var153)))
(assert (= 11 (Length var154)))
(assert (= 48 (Length var155)))
(assert (= 64 (Length var156)))
(assert (= 15 (Length var157)))
(assert (= 96 (Length var158)))
(assert (= 41 (Length var159)))
(assert (= 12 (Length var160)))
(assert (= 100 (Length var161)))
(assert (= 38 (Length var162)))
(assert (= 84 (Length var163)))
(assert (= 76 (Length var164)))
(assert (= 26 (Length var165)))
(assert (= 76 (Length var166)))
(assert (= 70 (Length var167)))
(assert (= 95 (Length var168)))
(assert (= 86 (Length var169)))
(assert (= 84 (Length var170)))
(assert (= 89 (Length var171)))
(assert (= 53 (Length var172)))
(assert (= 32 (Length var173)))
(assert (= 23 (Length var174)))
(assert (= 60 (Length var175)))
(assert (= 13 (Length var176)))
(assert (= 88 (Length var177)))
(assert (= 78 (Length var178)))
(assert (= 97 (Length var179)))
(assert (= 44 (Length var180)))
(assert (= 7 (Length var181)))
(assert (= 54 (Length var182)))
(assert (= 59 (Length var183)))
(assert (= 9 (Length var184)))
(assert (= 1 (Length var185)))
(assert (= 63 (Length var186)))
(assert (= 60 (Length var187)))
(assert (= 48 (Length var188)))
(assert (= 77 (Length var189)))
(assert (= 81 (Length var190)))
(assert (= 21 (Length var191)))
(assert (= 90 (Length var192)))
(assert (= 74 (Length var193)))
(assert (= 52 (Length var194)))
(assert (= 64 (Length var195)))
(assert (= 29 (Length var196)))
(assert (= 68 (Length var197)))
(assert (= 27 (Length var198)))
(assert (= 53 (Length var199)))
(assert (= 5 (Length var200)))
(assert (= 4 (Length var201)))
(assert (= 37 (Length var202)))
(assert (= 19 (Length var203)))
(assert (= 19 (Length var204)))
(assert (= 67 (Length var205)))
(assert (= 23 (Length var206)))
(assert (= 90 (Length var207)))
(assert (= 70 (Length var208)))
(assert (= 62 (Length var209)))
(assert (= 81 (Length (Concat var208 var154))))
(assert (= 112 (Length (Concat var12 var72))))
(assert (= 37 (Length (Concat var26 var202))))
(assert (= 51 (Length (Concat var78 var129))))
(assert (= 129 (Length (Concat var4 var109))))
(assert (= 134 (Length (Concat var3 var166))))
(assert (= 94 (Length (Concat var96 var186))))
(assert (= 112 (Length (Concat var107 var134))))
(assert (= 111 (Length (Concat var113 var7))))
(assert (= 69 (Length (Concat var160 var35))))
(assert (= 72 (Length (Concat var32 var1))))
(assert (= 89 (Length (Concat var92 var97))))
(assert (= 110 (Length (Concat var156 var132))))
(assert (= 42 (Length (Concat var36 var198))))
(assert (= 94 (Length (Concat var188 var17))))
(assert (= 102 (Length (Concat var95 var119))))
(assert (= 151 (Length (Concat var187 var87))))
(assert (= 117 (Length (Concat var23 var16))))
(assert (= 95 (Length (Concat var184 var169))))
(assert (= 183 (Length (Concat var11 var110))))
(assert (= 90 (Length (Concat var138 var60))))
(check-sat)